NAME : n60w20.004.670.tour
COMMENT : Length = 670
COMMENT : Found by LKH [Keld Helsgaun] Tue Nov  7 19:35:17 2017
TYPE : TOUR
DIMENSION : 61
TOUR_SECTION
1
14
26
9
50
49
57
11
59
44
28
13
34
36
30
12
39
4
10
24
5
31
55
42
51
45
3
35
23
56
22
19
2
7
15
6
43
47
8
16
48
18
21
41
25
20
29
32
40
27
46
53
38
54
33
60
37
17
61
52
58
-1
EOF
